
******************************************************************************
This program contains Ipopt, a library for large-scale nonlinear optimization.
 Ipopt is released as open source code under the Eclipse Public License (EPL).
         For more information visit http://projects.coin-or.org/Ipopt

This version of Ipopt was compiled from source code available at
    https://github.com/IDAES/Ipopt as part of the Institute for the Design of
    Advanced Energy Systems Process Systems Engineering Framework (IDAES PSE
    Framework) Copyright (c) 2018-2019. See https://github.com/IDAES/idaes-pse.

This version of Ipopt was compiled using HSL, a collection of Fortran codes
    for large-scale scientific computation.  All technical papers, sales and
    publicity material resulting from use of the HSL codes within IPOPT must
    contain the following acknowledgement:
        HSL, a collection of Fortran codes for large-scale scientific
        computation. See http://www.hsl.rl.ac.uk.
******************************************************************************

This is Ipopt version 3.13.2, running with linear solver ma27.

Number of nonzeros in equality constraint Jacobian...:     1172
Number of nonzeros in inequality constraint Jacobian.:        0
Number of nonzeros in Lagrangian Hessian.............:     1333

Total number of variables............................:      465
                     variables with only lower bounds:      124
                variables with lower and upper bounds:      279
                     variables with only upper bounds:        0
Total number of equality constraints.................:      462
Total number of inequality constraints...............:        0
        inequality constraints with only lower bounds:        0
   inequality constraints with lower and upper bounds:        0
        inequality constraints with only upper bounds:        0

iter    objective    inf_pr   inf_du lg(mu)  ||d||  lg(rg) alpha_du alpha_pr  ls
   0  0.0000000e+00 2.13e+00 2.22e-15  -1.0 0.00e+00    -  0.00e+00 0.00e+00   0
   1  8.2204343e-01 2.09e+00 5.75e+04  -1.0 7.15e+06    -  2.00e-02 1.47e-02f  4
   2  1.0596579e+00 2.08e+00 6.07e+04  -1.0 4.27e+06    -  1.97e-02 3.42e-03h  7
   3  2.1305319e+00 2.07e+00 6.87e+04  -1.0 4.74e+06    -  1.78e-02 7.52e-03h  5
   4  2.6646223e+00 2.06e+00 6.97e+04  -1.0 5.44e+06    -  1.89e-02 2.60e-03h  7
   5  7.4920788e+00 2.02e+00 1.03e+05  -1.0 5.94e+06    -  2.15e-02 1.64e-02h  4
   6  3.0777674e+01 1.96e+00 2.82e+05  -1.0 7.88e+06    -  2.10e-02 3.26e-02h  3
   7  3.5241219e+01 1.95e+00 2.86e+05  -1.0 1.28e+07    -  2.25e-02 3.00e-03h  6
   8  3.7358495e+01 1.95e+00 2.86e+05  -1.0 1.32e+07    -  2.89e-02 1.32e-03h  7
   9  3.9387137e+01 1.94e+00 2.86e+05  -1.0 1.35e+07    -  2.25e-02 1.22e-03h  7
iter    objective    inf_pr   inf_du lg(mu)  ||d||  lg(rg) alpha_du alpha_pr  ls
  10  4.1821573e+01 1.94e+00 2.86e+05  -1.0 1.42e+07    -  2.39e-02 1.36e-03h  7
  11  5.4686716e+02 7.26e+01 8.44e+07  -1.0 1.48e+07    -  2.56e-02 9.68e-02w  1
  12  7.0051519e+02 6.95e+01 5.76e+08  -1.0 1.75e+07  -4.0 1.69e-01 4.20e-02w  1
  13  6.4421399e+02 6.72e+01 4.06e+08  -1.0 2.03e+07  -4.5 1.99e-01 3.32e-02w  1
  14  4.4732638e+01 1.94e+00 2.86e+05  -1.0 7.80e+07  -5.0 2.56e-02 1.51e-03h  6
  15  4.8199830e+01 1.93e+00 2.86e+05  -1.0 1.55e+07    -  3.57e-02 1.65e-03h  7
  16  5.2456212e+01 1.93e+00 2.86e+05  -1.0 1.64e+07    -  3.61e-02 1.83e-03h  7
  17  5.7628317e+01 1.92e+00 2.87e+05  -1.0 1.74e+07    -  3.91e-02 1.99e-03h  7
  18  6.3939136e+01 1.92e+00 2.87e+05  -1.0 1.90e+07    -  4.79e-02 2.14e-03h  7
  19  7.1052548e+01 1.91e+00 2.88e+05  -1.0 2.09e+07    -  4.73e-02 2.10e-03h  7
iter    objective    inf_pr   inf_du lg(mu)  ||d||  lg(rg) alpha_du alpha_pr  ls
  20  7.8829398e+01 1.91e+00 2.88e+05  -1.0 2.29e+07    -  5.81e-02 2.00e-03h  7
  21  8.7378527e+01 1.90e+00 2.89e+05  -1.0 2.50e+07    -  5.74e-02 1.92e-03h  7
  22  9.6840245e+01 1.89e+00 2.89e+05  -1.0 2.72e+07    -  5.89e-02 1.86e-03h  7
  23  1.0734195e+02 1.89e+00 2.95e+05  -1.0 2.95e+07    -  6.03e-02 1.81e-03h  7
  24  2.6680217e+03 6.60e+01 3.24e+08  -1.0 3.20e+07    -  4.17e-02 1.19e-01w  1
  25  3.7662161e+03 6.59e+01 3.23e+08  -1.0 1.32e+09    -  2.61e-03 1.14e-03w  1
  26  3.7729387e+03 6.59e+01 3.23e+08  -1.0 8.16e+08    -  5.16e-03 2.75e-05w  1
  27  1.1329308e+02 1.89e+00 2.96e+05  -1.0 1.28e+09    -  4.17e-02 9.28e-04h  7
  28  1.3889441e+03 1.70e+00 1.75e+07  -1.0 3.50e+07    -  7.61e-02 8.96e-02h  1
  29  1.4151946e+03 1.70e+00 1.75e+07  -1.0 1.05e+08    -  3.95e-02 4.10e-04h  1
iter    objective    inf_pr   inf_du lg(mu)  ||d||  lg(rg) alpha_du alpha_pr  ls
  30  1.4200273e+03 1.70e+00 1.75e+07  -1.0 1.69e+08    -  4.59e-02 4.90e-05h  1
  31  1.5157131e+03 1.70e+00 1.75e+07  -1.0 1.82e+08    -  4.01e-02 8.58e-04h  7
  32  4.4267626e+03 1.80e+00 8.31e+07  -1.0 1.93e+08    -  3.85e-02 1.75e-02h  4
  33  5.5698120e+03 1.82e+00 5.31e+08  -1.0 1.80e+08  -5.4 2.45e-01 1.25e-02h  1
  34  5.2103139e+03 1.81e+00 4.44e+08  -1.0 1.47e+08  -5.9 2.22e-01 5.39e-03f  2
  35  9.3415897e+03 1.86e+00 1.20e+09  -1.0 3.98e+08    -  3.90e-02 1.08e-02h  3
  36  1.2599284e+04 1.87e+00 1.49e+09  -1.0 6.36e+08    -  3.71e-02 4.47e-03h  4
  37  1.8859898e+04 1.88e+00 2.30e+09  -1.0 8.95e+08    -  6.87e-02 5.07e-03h  4
  38  3.3575782e+04 1.91e+00 5.24e+09  -1.0 1.45e+09    -  1.77e-02 5.71e-03h  4
  39  5.0914523e+04 1.92e+00 8.05e+09  -1.0 2.90e+09    -  1.82e-01 2.69e-03h  4
iter    objective    inf_pr   inf_du lg(mu)  ||d||  lg(rg) alpha_du alpha_pr  ls
  40  6.3338512e+04 1.92e+00 1.01e+10  -1.0 7.16e+09    -  5.34e-03 6.61e-04h  6
  41  6.4732398e+04 1.92e+00 1.01e+10  -1.0 8.24e+09    -  6.16e-03 5.89e-05h  5
  42  7.3103199e+04 1.92e+00 1.14e+10  -1.0 1.08e+10    -  1.27e-02 2.66e-04h  4
  43  8.4143091e+04 1.92e+00 1.38e+10  -1.0 1.52e+10    -  1.61e-02 2.32e-04h  5
  44  3.4723371e+05 2.44e+00 6.98e+11  -1.0 2.25e+10    -  2.50e-03 2.35e-03w  1
  45  1.2716642e+08 1.05e+02 2.40e+14  -1.0 1.50e+11    -  1.01e-04 1.25e-02w  1
  46  1.2714460e+08 1.05e+02 2.40e+14  -1.0 1.97e+09  -5.5 4.63e-02 2.60e-04w  1
  47  8.9613926e+04 1.92e+00 1.46e+10  -1.0 3.53e+09  -6.0 2.50e-03 7.35e-05h  5
  48  9.1669558e+04 1.92e+00 1.47e+10  -1.0 2.67e+10    -  2.61e-03 2.24e-05h  7
  49r 9.1669558e+04 1.92e+00 1.00e+03   0.3 0.00e+00  -6.4 0.00e+00 3.10e-07R  8
iter    objective    inf_pr   inf_du lg(mu)  ||d||  lg(rg) alpha_du alpha_pr  ls
  50r 9.1669562e+04 1.93e+00 9.96e+02   0.3 2.45e+03    -  1.63e-02 3.31e-03f  1
  51r 9.1669573e+04 1.99e+00 9.84e+02   0.3 7.25e+02    -  9.80e-03 1.21e-02f  1
  52r 9.1669596e+04 2.18e+00 9.55e+02   0.3 6.03e+02    -  4.77e-02 2.95e-02f  1
  53r 9.1669596e+04 2.16e+00 9.75e+02   0.3 1.07e-01   4.0 3.19e-01 1.98e-01f  1
  54r 9.1669596e+04 2.11e+00 1.03e+03   0.3 3.57e-01   3.5 2.76e-01 2.55e-01f  1
  55r 9.1669596e+04 2.08e+00 1.13e+03   0.3 1.29e-01   3.9 9.83e-01 2.82e-01f  1
  56r 9.1669596e+04 1.98e+00 1.02e+03   0.3 3.20e-01   3.5 3.15e-01 3.47e-01f  1
  57r 9.1669596e+04 1.65e+00 9.67e+02   0.3 8.93e-01   3.0 4.03e-01 3.95e-01f  1
  58  9.1667292e+04 1.65e+00 1.68e+04  -1.0 4.65e+08    -  2.59e-02 1.52e-06f  1
  59  7.6459413e+04 1.64e+00 4.34e+07  -1.0 1.95e+09    -  3.98e-02 2.44e-03f  1
iter    objective    inf_pr   inf_du lg(mu)  ||d||  lg(rg) alpha_du alpha_pr  ls
  60  3.1287266e+04 1.67e+00 1.38e+09  -1.0 1.67e+09    -  1.28e-01 1.07e-02f  1
  61  2.9609002e+04 1.66e+00 1.44e+09  -1.0 5.89e+08    -  1.40e-01 1.19e-03f  1
  62  1.8243404e+04 1.68e+00 2.22e+09  -1.0 1.21e+09    -  1.98e-03 5.83e-03f  3
  63r 1.8243404e+04 1.68e+00 1.00e+03   0.2 0.00e+00  -1.5 0.00e+00 1.93e-07R  2
  64r 1.8243404e+04 1.67e+00 9.97e+02   0.2 5.74e+03    -  3.25e-02 1.85e-03f  1
  65r 1.8243403e+04 1.63e+00 9.76e+02   0.2 5.00e+02    -  1.75e-02 2.08e-02f  1
  66r 1.8243403e+04 1.61e+00 9.65e+02   0.2 1.10e+02    -  9.69e-02 1.17e-02f  1
  67r 1.8243403e+04 1.57e+00 8.84e+02   0.2 4.52e+01    -  2.14e-02 8.36e-02f  1
  68r 1.8243403e+04 1.56e+00 8.60e+02   0.2 4.42e+01    -  4.68e-02 2.73e-02f  1
  69r 1.8243403e+04 1.54e+00 8.17e+02   0.2 4.24e+01    -  6.80e-02 4.96e-02f  1
iter    objective    inf_pr   inf_du lg(mu)  ||d||  lg(rg) alpha_du alpha_pr  ls
  70r 1.8243403e+04 1.53e+00 7.93e+02   0.2 1.77e+01   0.0 2.92e-02 3.01e-02f  1
  71r 1.8243403e+04 1.53e+00 7.92e+02   0.2 3.11e+03    -  5.02e-04 2.57e-03f  1
  72r 1.8243403e+04 1.53e+00 7.68e+02   0.2 1.26e+01  -0.5 8.85e-02 2.84e-02f  1
  73r 1.8243403e+04 1.53e+00 7.07e+02   0.2 9.07e+00  -0.1 8.60e-02 8.03e-02f  1
  74r 1.8243403e+04 1.52e+00 9.74e+03   0.2 6.28e+00   0.4 7.92e-02 1.64e-01f  1
  75r 1.8243403e+04 1.52e+00 8.68e+03   0.2 2.55e+00   0.8 7.69e-02 1.19e-01f  1
  76r 1.8243403e+04 1.52e+00 7.85e+03   0.2 2.19e+00   1.2 6.81e-02 1.03e-01f  1
  77r 1.8243403e+04 1.52e+00 7.71e+03   0.2 6.37e+00   0.7 1.76e-02 2.04e-02f  1
  78r 1.8243403e+04 1.50e+00 5.52e+03   0.2 9.41e-02   3.0 4.44e-01 2.83e-01f  1
  79  1.8239911e+04 2.64e+00 9.00e+05  -1.0 4.07e+08    -  4.98e-07 7.55e-06f  1
iter    objective    inf_pr   inf_du lg(mu)  ||d||  lg(rg) alpha_du alpha_pr  ls
  80  1.7703703e+04 2.06e+00 7.60e+06  -1.0 2.73e+08    -  9.37e-06 1.29e-03f  2
  81  1.6543899e+04 4.93e+00 4.84e+07  -1.0 2.56e+08    -  2.03e-03 3.04e-03f  1
  82  1.6310741e+04 3.31e+00 4.98e+07  -1.0 2.74e+08    -  2.92e-03 5.93e-04f  1
  83  1.5059622e+04 5.11e+00 1.22e+08  -1.0 2.54e+08    -  4.09e-04 3.75e-03f  2
  84  1.5045256e+04 5.02e+00 4.26e+09  -1.0 1.34e+08  -2.0 2.40e-02 1.02e-04f  1
  85r 1.5045256e+04 5.02e+00 9.99e+02   0.7 0.00e+00  -1.5 0.00e+00 3.53e-08R  2
  86r 1.5045256e+04 1.27e+01 1.95e+03   0.7 6.81e+03    -  5.56e-03 2.61e-03f  1
  87r 1.5045256e+04 2.78e+02 2.50e+11   0.7 7.96e+00   2.0 1.43e-01 4.74e-02f  1
WARNING: Problem in step computation; switching to emergency mode.
  88r 1.5045256e+04 2.78e+02 2.50e+11   0.7 7.96e+00  19.7 0.00e+00 0.00e+00R  1
WARNING: Problem in step computation; switching to emergency mode.
Restoration phase is called at point that is almost feasible,
  with constraint violation 0.000000e+00. Abort.
Restoration phase in the restoration phase failed.

Number of Iterations....: 88

                                   (scaled)                 (unscaled)
Objective...............:   1.5045256336413253e+04    1.5045256336413253e+04
Dual infeasibility......:   2.5003280773608063e+11    2.5003280773608063e+11
Constraint violation....:   2.7776921769431385e+02    2.7776921769431385e+02
Complementarity.........:   8.2756738308305168e+08    8.2756738308305168e+08
Overall NLP error.......:   2.5003280773608063e+11    2.5003280773608063e+11


Number of objective function evaluations             = 312
Number of objective gradient evaluations             = 66
Number of equality constraint evaluations            = 312
Number of inequality constraint evaluations          = 0
Number of equality constraint Jacobian evaluations   = 92
Number of inequality constraint Jacobian evaluations = 0
Number of Lagrangian Hessian evaluations             = 89
Total CPU secs in IPOPT (w/o function evaluations)   =      0.199
Total CPU secs in NLP function evaluations           =      3.649

EXIT: Restoration Failed!
